\ENCODING=ISO-8859-1
\Problem name: IloCplex

Maximize
 obj1:
Subject To
 c1: 100 x_1 + 100 x_2 + 100 x_3 + 100 x_4 + 98 x_5 + 98 x_6 + 98 x_7 + 98 x_8
     + 98 x_9 + 97 x_10 + 97 x_11 + 97 x_12 + 97 x_13 + 97 x_14 + 97 x_15
     + 97 x_16 + 96 x_17 + 96 x_18 + 96 x_19 + 96 x_20 + 95 x_21 + 94 x_22
     + 93 x_23 + 93 x_24 + 93 x_25 + 93 x_26 + 92 x_27 + 92 x_28 + 92 x_29
     + 92 x_30 + 91 x_31 + 90 x_32 + 90 x_33 + 89 x_34 + 89 x_35 + 89 x_36
     + 88 x_37 + 87 x_38 + 86 x_39 + 86 x_40 + 86 x_41 + 86 x_42 + 85 x_43
     + 85 x_44 + 85 x_45 + 84 x_46 + 84 x_47 + 84 x_48 + 83 x_49 + 83 x_50
     + 82 x_51 + 82 x_52 + 81 x_53 + 81 x_54 + 81 x_55 + 80 x_56 + 80 x_57
     + 80 x_58 + 79 x_59 + 79 x_60 + 79 x_61 + 79 x_62 + 78 x_63 + 78 x_64
     + 78 x_65 + 78 x_66 + 77 x_67 + 77 x_68 + 77 x_69 + 77 x_70 + 76 x_71
     + 76 x_72 + 76 x_73 + 75 x_74 + 75 x_75 + 75 x_76 + 74 x_77 + 74 x_78
     + 74 x_79 + 74 x_80 + 73 x_81 + 72 x_82 + 72 x_83 + 72 x_84 + 72 x_85
     + 72 x_86 + 72 x_87 + 71 x_88 + 70 x_89 + 70 x_90 + 70 x_91 + 69 x_92
     + 69 x_93 + 69 x_94 + 68 x_95 + 68 x_96 + 68 x_97 + 67 x_98 + 66 x_99
     + 66 x_100 + 65 x_101 + 65 x_102 + 65 x_103 + 64 x_104 + 64 x_105
     + 64 x_106 + 64 x_107 + 64 x_108 + 63 x_109 + 63 x_110 + 63 x_111
     + 63 x_112 + 62 x_113 + 62 x_114 + 61 x_115 + 60 x_116 + 60 x_117
     + 59 x_118 + 59 x_119 + 59 x_120 + 58 x_121 + 58 x_122 + 57 x_123
     + 57 x_124 + 57 x_125 + 56 x_126 + 56 x_127 + 55 x_128 + 55 x_129
     + 55 x_130 + 55 x_131 + 55 x_132 + 54 x_133 + 54 x_134 + 54 x_135
     + 54 x_136 + 53 x_137 + 53 x_138 + 53 x_139 + 52 x_140 + 51 x_141
     + 51 x_142 + 51 x_143 + 50 x_144 + 50 x_145 + 50 x_146 + 49 x_147
     + 48 x_148 + 48 x_149 + 48 x_150 + 47 x_151 + 47 x_152 + 47 x_153
     + 47 x_154 + 46 x_155 + 46 x_156 + 46 x_157 + 46 x_158 + 45 x_159
     + 44 x_160 + 44 x_161 + 44 x_162 + 43 x_163 + 43 x_164 + 43 x_165
     + 42 x_166 + 42 x_167 + 42 x_168 + 41 x_169 + 41 x_170 + 41 x_171
     + 40 x_172 + 40 x_173 + 40 x_174 + 39 x_175 + 39 x_176 + 39 x_177
     + 39 x_178 + 38 x_179 + 38 x_180 + 38 x_181 + 37 x_182 + 36 x_183
     + 36 x_184 + 36 x_185 + 36 x_186 + 35 x_187 + 35 x_188 + 34 x_189
     + 34 x_190 + 33 x_191 + 32 x_192 + 32 x_193 + 32 x_194 + 32 x_195
     + 32 x_196 + 32 x_197 + 31 x_198 + 31 x_199 + 30 x_200 <= 120
Bounds
 0 <= x_1 <= 1
 0 <= x_2 <= 1
 0 <= x_3 <= 1
 0 <= x_4 <= 1
 0 <= x_5 <= 1
 0 <= x_6 <= 1
 0 <= x_7 <= 1
 0 <= x_8 <= 1
 0 <= x_9 <= 1
 0 <= x_10 <= 1
 0 <= x_11 <= 1
 0 <= x_12 <= 1
 0 <= x_13 <= 1
 0 <= x_14 <= 1
 0 <= x_15 <= 1
 0 <= x_16 <= 1
 0 <= x_17 <= 1
 0 <= x_18 <= 1
 0 <= x_19 <= 1
 0 <= x_20 <= 1
 0 <= x_21 <= 1
 0 <= x_22 <= 1
 0 <= x_23 <= 1
 0 <= x_24 <= 1
 0 <= x_25 <= 1
 0 <= x_26 <= 1
 0 <= x_27 <= 1
 0 <= x_28 <= 1
 0 <= x_29 <= 1
 0 <= x_30 <= 1
 0 <= x_31 <= 1
 0 <= x_32 <= 1
 0 <= x_33 <= 1
 0 <= x_34 <= 1
 0 <= x_35 <= 1
 0 <= x_36 <= 1
 0 <= x_37 <= 1
 0 <= x_38 <= 1
 0 <= x_39 <= 1
 0 <= x_40 <= 1
 0 <= x_41 <= 1
 0 <= x_42 <= 1
 0 <= x_43 <= 1
 0 <= x_44 <= 1
 0 <= x_45 <= 1
 0 <= x_46 <= 1
 0 <= x_47 <= 1
 0 <= x_48 <= 1
 0 <= x_49 <= 1
 0 <= x_50 <= 1
 0 <= x_51 <= 1
 0 <= x_52 <= 1
 0 <= x_53 <= 1
 0 <= x_54 <= 1
 0 <= x_55 <= 1
 0 <= x_56 <= 1
 0 <= x_57 <= 1
 0 <= x_58 <= 1
 0 <= x_59 <= 1
 0 <= x_60 <= 1
 0 <= x_61 <= 1
 0 <= x_62 <= 1
 0 <= x_63 <= 1
 0 <= x_64 <= 1
 0 <= x_65 <= 1
 0 <= x_66 <= 1
 0 <= x_67 <= 1
 0 <= x_68 <= 1
 0 <= x_69 <= 1
 0 <= x_70 <= 1
 0 <= x_71 <= 1
 0 <= x_72 <= 1
 0 <= x_73 <= 1
 0 <= x_74 <= 1
 0 <= x_75 <= 1
 0 <= x_76 <= 1
 0 <= x_77 <= 1
 0 <= x_78 <= 1
 0 <= x_79 <= 1
 0 <= x_80 <= 1
 0 <= x_81 <= 1
 0 <= x_82 <= 1
 0 <= x_83 <= 1
 0 <= x_84 <= 1
 0 <= x_85 <= 1
 0 <= x_86 <= 1
 0 <= x_87 <= 1
 0 <= x_88 <= 1
 0 <= x_89 <= 1
 0 <= x_90 <= 1
 0 <= x_91 <= 1
 0 <= x_92 <= 1
 0 <= x_93 <= 1
 0 <= x_94 <= 1
 0 <= x_95 <= 1
 0 <= x_96 <= 1
 0 <= x_97 <= 1
 0 <= x_98 <= 1
 0 <= x_99 <= 1
 0 <= x_100 <= 1
 0 <= x_101 <= 1
 0 <= x_102 <= 1
 0 <= x_103 <= 1
 0 <= x_104 <= 1
 0 <= x_105 <= 1
 0 <= x_106 <= 1
 0 <= x_107 <= 1
 0 <= x_108 <= 1
 0 <= x_109 <= 1
 0 <= x_110 <= 1
 0 <= x_111 <= 1
 0 <= x_112 <= 1
 0 <= x_113 <= 1
 0 <= x_114 <= 1
 0 <= x_115 <= 1
 0 <= x_116 <= 1
 0 <= x_117 <= 1
 0 <= x_118 <= 1
 0 <= x_119 <= 1
 0 <= x_120 <= 1
 0 <= x_121 <= 1
 0 <= x_122 <= 1
 0 <= x_123 <= 1
 0 <= x_124 <= 1
 0 <= x_125 <= 1
 0 <= x_126 <= 1
 0 <= x_127 <= 1
 0 <= x_128 <= 1
 0 <= x_129 <= 1
 0 <= x_130 <= 1
 0 <= x_131 <= 1
 0 <= x_132 <= 1
 0 <= x_133 <= 1
 0 <= x_134 <= 1
 0 <= x_135 <= 1
 0 <= x_136 <= 1
 0 <= x_137 <= 1
 0 <= x_138 <= 1
 0 <= x_139 <= 1
 0 <= x_140 <= 1
 0 <= x_141 <= 1
 0 <= x_142 <= 1
 0 <= x_143 <= 1
 0 <= x_144 <= 1
 0 <= x_145 <= 1
 0 <= x_146 <= 1
 0 <= x_147 <= 1
 0 <= x_148 <= 1
 0 <= x_149 <= 1
 0 <= x_150 <= 1
 0 <= x_151 <= 1
 0 <= x_152 <= 1
 0 <= x_153 <= 1
 0 <= x_154 <= 1
 0 <= x_155 <= 1
 0 <= x_156 <= 1
 0 <= x_157 <= 1
 0 <= x_158 <= 1
 0 <= x_159 <= 1
 0 <= x_160 <= 1
 0 <= x_161 <= 1
 0 <= x_162 <= 1
 0 <= x_163 <= 1
 0 <= x_164 <= 1
 0 <= x_165 <= 1
 0 <= x_166 <= 1
 0 <= x_167 <= 1
 0 <= x_168 <= 1
 0 <= x_169 <= 1
 0 <= x_170 <= 1
 0 <= x_171 <= 1
 0 <= x_172 <= 1
 0 <= x_173 <= 1
 0 <= x_174 <= 1
 0 <= x_175 <= 1
 0 <= x_176 <= 1
 0 <= x_177 <= 1
 0 <= x_178 <= 1
 0 <= x_179 <= 1
 0 <= x_180 <= 1
 0 <= x_181 <= 1
 0 <= x_182 <= 1
 0 <= x_183 <= 1
 0 <= x_184 <= 1
 0 <= x_185 <= 1
 0 <= x_186 <= 1
 0 <= x_187 <= 1
 0 <= x_188 <= 1
 0 <= x_189 <= 1
 0 <= x_190 <= 1
 0 <= x_191 <= 1
 0 <= x_192 <= 1
 0 <= x_193 <= 1
 0 <= x_194 <= 1
 0 <= x_195 <= 1
 0 <= x_196 <= 1
 0 <= x_197 <= 1
 0 <= x_198 <= 1
 0 <= x_199 <= 1
 0 <= x_200 <= 1
Binaries
 x_1  x_2  x_3  x_4  x_5  x_6  x_7  x_8  x_9  x_10  x_11  x_12  x_13  x_14 
 x_15  x_16  x_17  x_18  x_19  x_20  x_21  x_22  x_23  x_24  x_25  x_26  x_27 
 x_28  x_29  x_30  x_31  x_32  x_33  x_34  x_35  x_36  x_37  x_38  x_39  x_40 
 x_41  x_42  x_43  x_44  x_45  x_46  x_47  x_48  x_49  x_50  x_51  x_52  x_53 
 x_54  x_55  x_56  x_57  x_58  x_59  x_60  x_61  x_62  x_63  x_64  x_65  x_66 
 x_67  x_68  x_69  x_70  x_71  x_72  x_73  x_74  x_75  x_76  x_77  x_78  x_79 
 x_80  x_81  x_82  x_83  x_84  x_85  x_86  x_87  x_88  x_89  x_90  x_91  x_92 
 x_93  x_94  x_95  x_96  x_97  x_98  x_99  x_100  x_101  x_102  x_103  x_104 
 x_105  x_106  x_107  x_108  x_109  x_110  x_111  x_112  x_113  x_114  x_115 
 x_116  x_117  x_118  x_119  x_120  x_121  x_122  x_123  x_124  x_125  x_126 
 x_127  x_128  x_129  x_130  x_131  x_132  x_133  x_134  x_135  x_136  x_137 
 x_138  x_139  x_140  x_141  x_142  x_143  x_144  x_145  x_146  x_147  x_148 
 x_149  x_150  x_151  x_152  x_153  x_154  x_155  x_156  x_157  x_158  x_159 
 x_160  x_161  x_162  x_163  x_164  x_165  x_166  x_167  x_168  x_169  x_170 
 x_171  x_172  x_173  x_174  x_175  x_176  x_177  x_178  x_179  x_180  x_181 
 x_182  x_183  x_184  x_185  x_186  x_187  x_188  x_189  x_190  x_191  x_192 
 x_193  x_194  x_195  x_196  x_197  x_198  x_199  x_200 
End
